nNurses = 113;
nHours = 27;
minHours = 4;
maxHours = 12;
maxConsec = 7;
maxPresence = 26;
demand = [40, 36, 35, 35, 37, 38, 39, 40, 35, 31, 36, 40, 36, 38, 40, 40, 40, 37, 40, 40, 39, 37, 35, 30, 33, 36, 33];
